0000000000000000
0000000000000000
0001000000000000
0001000000000000
0001111100000000
0001111100000000
0000000100000000
0000000100000000
0000000100000000
0000000100000000
0000011100000000
0000011000000000
0000000000000000
0000000000000000
0000000000000000
0000000000000000
